50 2755
248 558 160 1120 1120 124 1440 1280 372 124 248 62 800 800 248 1280 248 1120 320 1440 320 800 800 960 62 1280 1280 1600 480 1280 1280 62 310 496 186 372 1280 372 496 248 1280 1600 620 320 310 1440 800 1280 1440 620 
168 378 140 980 980 84 1260 1120 252 84 168 42 700 700 168 1120 168 980 280 1260 280 700 700 840 42 1120 1120 1400 420 1120 1120 42 210 336 126 252 1120 252 336 168 1120 1400 420 280 210 1260 700 1120 1260 420 
